c nIsolatedPIs 0
c maxPI 32
p cnf 290 775
c gate 33 -16 -32 0
-16 -33 0
-32 -33 0
16 32 33 0
c gate 34 16 32 0
16 -34 0
32 -34 0
-16 -32 34 0
c gate 35 -33 -34 0
-33 -35 0
-34 -35 0
33 34 35 0
c gate 36 15 31 0
15 -36 0
31 -36 0
-15 -31 36 0
c gate 37 -14 -30 0
-14 -37 0
-30 -37 0
14 30 37 0
c gate 38 14 -30 0
14 -38 0
-30 -38 0
-14 30 38 0
c gate 39 -14 30 0
-14 -39 0
30 -39 0
14 -30 39 0
c gate 40 -38 -39 0
-38 -40 0
-39 -40 0
38 39 40 0
c gate 41 -13 -29 0
-13 -41 0
-29 -41 0
13 29 41 0
c gate 42 13 29 0
13 -42 0
29 -42 0
-13 -29 42 0
c gate 43 12 28 0
12 -43 0
28 -43 0
-12 -28 43 0
c gate 44 -7 -23 0
-7 -44 0
-23 -44 0
7 23 44 0
c gate 45 7 23 0
7 -45 0
23 -45 0
-7 -23 45 0
c gate 46 -44 -45 0
-44 -46 0
-45 -46 0
44 45 46 0
c gate 47 -6 -22 0
-6 -47 0
-22 -47 0
6 22 47 0
c gate 48 6 22 0
6 -48 0
22 -48 0
-6 -22 48 0
c gate 49 -47 -48 0
-47 -49 0
-48 -49 0
47 48 49 0
c gate 50 5 21 0
5 -50 0
21 -50 0
-5 -21 50 0
c gate 51 5 -21 0
5 -51 0
-21 -51 0
-5 21 51 0
c gate 52 -5 21 0
-5 -52 0
21 -52 0
5 -21 52 0
c gate 53 -51 -52 0
-51 -53 0
-52 -53 0
51 52 53 0
c gate 54 4 20 0
4 -54 0
20 -54 0
-4 -20 54 0
c gate 55 -4 -20 0
-4 -55 0
-20 -55 0
4 20 55 0
c gate 56 3 19 0
3 -56 0
19 -56 0
-3 -19 56 0
c gate 57 1 17 0
1 -57 0
17 -57 0
-1 -17 57 0
c gate 58 2 18 0
2 -58 0
18 -58 0
-2 -18 58 0
c gate 59 -57 -58 0
-57 -59 0
-58 -59 0
57 58 59 0
c gate 60 -3 19 0
-3 -60 0
19 -60 0
3 -19 60 0
c gate 61 3 -19 0
3 -61 0
-19 -61 0
-3 19 61 0
c gate 62 -60 -61 0
-60 -62 0
-61 -62 0
60 61 62 0
c gate 63 -59 -62 0
-59 -63 0
-62 -63 0
59 62 63 0
c gate 64 -56 -63 0
-56 -64 0
-63 -64 0
56 63 64 0
c gate 65 -55 -64 0
-55 -65 0
-64 -65 0
55 64 65 0
c gate 66 -54 -65 0
-54 -66 0
-65 -66 0
54 65 66 0
c gate 67 -2 -18 0
-2 -67 0
-18 -67 0
2 18 67 0
c gate 68 -56 67 0
-56 -68 0
67 -68 0
56 -67 68 0
c gate 69 -54 68 0
-54 -69 0
68 -69 0
54 -68 69 0
c gate 70 -66 -69 0
-66 -70 0
-69 -70 0
66 69 70 0
c gate 71 -53 70 0
-53 -71 0
70 -71 0
53 -70 71 0
c gate 72 -50 -71 0
-50 -72 0
-71 -72 0
50 71 72 0
c gate 73 49 72 0
49 -73 0
72 -73 0
-49 -72 73 0
c gate 74 -47 -73 0
-47 -74 0
-73 -74 0
47 73 74 0
c gate 75 46 -74 0
46 -75 0
-74 -75 0
-46 74 75 0
c gate 76 -8 -24 0
-8 -76 0
-24 -76 0
8 24 76 0
c gate 77 -44 -76 0
-44 -77 0
-76 -77 0
44 76 77 0
c gate 78 -75 77 0
-75 -78 0
77 -78 0
75 -77 78 0
c gate 79 8 24 0
8 -79 0
24 -79 0
-8 -24 79 0
c gate 80 9 25 0
9 -80 0
25 -80 0
-9 -25 80 0
c gate 81 -79 -80 0
-79 -81 0
-80 -81 0
79 80 81 0
c gate 82 -78 81 0
-78 -82 0
81 -82 0
78 -81 82 0
c gate 83 -10 -26 0
-10 -83 0
-26 -83 0
10 26 83 0
c gate 84 -9 -25 0
-9 -84 0
-25 -84 0
9 25 84 0
c gate 85 -83 -84 0
-83 -85 0
-84 -85 0
83 84 85 0
c gate 86 -82 85 0
-82 -86 0
85 -86 0
82 -85 86 0
c gate 87 10 26 0
10 -87 0
26 -87 0
-10 -26 87 0
c gate 88 11 27 0
11 -88 0
27 -88 0
-11 -27 88 0
c gate 89 -87 -88 0
-87 -89 0
-88 -89 0
87 88 89 0
c gate 90 -86 89 0
-86 -90 0
89 -90 0
86 -89 90 0
c gate 91 -11 -27 0
-11 -91 0
-27 -91 0
11 27 91 0
c gate 92 -12 -28 0
-12 -92 0
-28 -92 0
12 28 92 0
c gate 93 -91 -92 0
-91 -93 0
-92 -93 0
91 92 93 0
c gate 94 -90 93 0
-90 -94 0
93 -94 0
90 -93 94 0
c gate 95 -43 -94 0
-43 -95 0
-94 -95 0
43 94 95 0
c gate 96 -42 95 0
-42 -96 0
95 -96 0
42 -95 96 0
c gate 97 -41 -96 0
-41 -97 0
-96 -97 0
41 96 97 0
c gate 98 -40 -97 0
-40 -98 0
-97 -98 0
40 97 98 0
c gate 99 -37 -98 0
-37 -99 0
-98 -99 0
37 98 99 0
c gate 100 -15 31 0
-15 -100 0
31 -100 0
15 -31 100 0
c gate 101 15 -31 0
15 -101 0
-31 -101 0
-15 31 101 0
c gate 102 -100 -101 0
-100 -102 0
-101 -102 0
100 101 102 0
c gate 103 99 -102 0
99 -103 0
-102 -103 0
-99 102 103 0
c gate 104 -36 -103 0
-36 -104 0
-103 -104 0
36 103 104 0
c gate 105 35 104 0
35 -105 0
104 -105 0
-35 -104 105 0
c gate 106 -35 -104 0
-35 -106 0
-104 -106 0
35 104 106 0
c gate 107 -105 -106 0
-105 -107 0
-106 -107 0
105 106 107 0
c gate 108 -42 -43 0
-42 -108 0
-43 -108 0
42 43 108 0
c gate 109 -40 108 0
-40 -109 0
108 -109 0
40 -108 109 0
c gate 110 -37 -109 0
-37 -110 0
-109 -110 0
37 109 110 0
c gate 111 -36 -110 0
-36 -111 0
-110 -111 0
36 110 111 0
c gate 112 35 111 0
35 -112 0
111 -112 0
-35 -111 112 0
c gate 113 -35 -111 0
-35 -113 0
-111 -113 0
35 111 113 0
c gate 114 -112 -113 0
-112 -114 0
-113 -114 0
112 113 114 0
c gate 115 107 -114 0
107 -115 0
-114 -115 0
-107 114 115 0
c gate 116 -107 114 0
-107 -116 0
114 -116 0
107 -114 116 0
c gate 117 -115 -116 0
-115 -117 0
-116 -117 0
115 116 117 0
c gate 118 12 -28 0
12 -118 0
-28 -118 0
-12 28 118 0
c gate 119 11 -27 0
11 -119 0
-27 -119 0
-11 27 119 0
c gate 120 -118 -119 0
-118 -120 0
-119 -120 0
118 119 120 0
c gate 121 -10 26 0
-10 -121 0
26 -121 0
10 -26 121 0
c gate 122 -9 25 0
-9 -122 0
25 -122 0
9 -25 122 0
c gate 123 7 -23 0
7 -123 0
-23 -123 0
-7 23 123 0
c gate 124 6 -22 0
6 -124 0
-22 -124 0
-6 22 124 0
c gate 125 -2 18 0
-2 -125 0
18 -125 0
2 -18 125 0
c gate 126 -1 17 0
-1 -126 0
17 -126 0
1 -17 126 0
c gate 127 -125 -126 0
-125 -127 0
-126 -127 0
125 126 127 0
c gate 128 2 -18 0
2 -128 0
-18 -128 0
-2 18 128 0
c gate 129 -61 -128 0
-61 -129 0
-128 -129 0
61 128 129 0
c gate 130 -127 129 0
-127 -130 0
129 -130 0
127 -129 130 0
c gate 131 -60 -130 0
-60 -131 0
-130 -131 0
60 130 131 0
c gate 132 4 -20 0
4 -132 0
-20 -132 0
-4 20 132 0
c gate 133 -131 -132 0
-131 -133 0
-132 -133 0
131 132 133 0
c gate 134 -4 20 0
-4 -134 0
20 -134 0
4 -20 134 0
c gate 135 -133 -134 0
-133 -135 0
-134 -135 0
133 134 135 0
c gate 136 -51 -135 0
-51 -136 0
-135 -136 0
51 135 136 0
c gate 137 -49 -52 0
-49 -137 0
-52 -137 0
49 52 137 0
c gate 138 -136 137 0
-136 -138 0
137 -138 0
136 -137 138 0
c gate 139 -124 -138 0
-124 -139 0
-138 -139 0
124 138 139 0
c gate 140 -46 -139 0
-46 -140 0
-139 -140 0
46 139 140 0
c gate 141 -123 -140 0
-123 -141 0
-140 -141 0
123 140 141 0
c gate 142 -76 -79 0
-76 -142 0
-79 -142 0
76 79 142 0
c gate 143 -141 -142 0
-141 -143 0
-142 -143 0
141 142 143 0
c gate 144 8 -24 0
8 -144 0
-24 -144 0
-8 24 144 0
c gate 145 9 -25 0
9 -145 0
-25 -145 0
-9 25 145 0
c gate 146 -144 -145 0
-144 -146 0
-145 -146 0
144 145 146 0
c gate 147 -143 146 0
-143 -147 0
146 -147 0
143 -146 147 0
c gate 148 -122 -147 0
-122 -148 0
-147 -148 0
122 147 148 0
c gate 149 -83 -87 0
-83 -149 0
-87 -149 0
83 87 149 0
c gate 150 -148 -149 0
-148 -150 0
-149 -150 0
148 149 150 0
c gate 151 -121 -150 0
-121 -151 0
-150 -151 0
121 150 151 0
c gate 152 120 -151 0
120 -152 0
-151 -152 0
-120 151 152 0
c gate 153 -88 -91 0
-88 -153 0
-91 -153 0
88 91 153 0
c gate 154 120 153 0
120 -154 0
153 -154 0
-120 -153 154 0
c gate 155 -41 -42 0
-41 -155 0
-42 -155 0
41 42 155 0
c gate 156 -12 28 0
-12 -156 0
28 -156 0
12 -28 156 0
c gate 157 -155 -156 0
-155 -157 0
-156 -157 0
155 156 157 0
c gate 158 -154 157 0
-154 -158 0
157 -158 0
154 -157 158 0
c gate 159 152 158 0
152 -159 0
158 -159 0
-152 -158 159 0
c gate 160 151 153 0
151 -160 0
153 -160 0
-151 -153 160 0
c gate 161 -151 -153 0
-151 -161 0
-153 -161 0
151 153 161 0
c gate 162 -160 -161 0
-160 -162 0
-161 -162 0
160 161 162 0
c gate 163 10 -26 0
10 -163 0
-26 -163 0
-10 26 163 0
c gate 164 -146 -149 0
-146 -164 0
-149 -164 0
146 149 164 0
c gate 165 -163 -164 0
-163 -165 0
-164 -165 0
163 164 165 0
c gate 166 153 -165 0
153 -166 0
-165 -166 0
-153 165 166 0
c gate 167 -162 -166 0
-162 -167 0
-166 -167 0
162 166 167 0
c gate 168 146 149 0
146 -168 0
149 -168 0
-146 -149 168 0
c gate 169 -164 -168 0
-164 -169 0
-168 -169 0
164 168 169 0
c gate 170 148 149 0
148 -170 0
149 -170 0
-148 -149 170 0
c gate 171 -150 -170 0
-150 -171 0
-170 -171 0
150 170 171 0
c gate 172 169 171 0
169 -172 0
171 -172 0
-169 -171 172 0
c gate 173 -169 -171 0
-169 -173 0
-171 -173 0
169 171 173 0
c gate 174 -122 -145 0
-122 -174 0
-145 -174 0
122 145 174 0
c gate 175 143 174 0
143 -175 0
174 -175 0
-143 -174 175 0
c gate 176 -140 -143 0
-140 -176 0
-143 -176 0
140 143 176 0
c gate 177 -50 53 0
-50 -177 0
53 -177 0
50 -53 177 0
c gate 178 -135 177 0
-135 -178 0
177 -178 0
135 -177 178 0
c gate 179 49 178 0
49 -179 0
178 -179 0
-49 -178 179 0
c gate 180 -138 -179 0
-138 -180 0
-179 -180 0
138 179 180 0
c gate 181 -140 180 0
-140 -181 0
180 -181 0
140 -180 181 0
c gate 182 -177 181 0
-177 -182 0
181 -182 0
177 -181 182 0
c gate 183 35 -117 0
35 -183 0
-117 -183 0
-35 117 183 0
c gate 184 182 -183 0
182 -184 0
-183 -184 0
-182 183 184 0
c gate 185 75 142 0
75 -185 0
142 -185 0
-75 -142 185 0
c gate 186 57 -125 0
57 -186 0
-125 -186 0
-57 125 186 0
c gate 187 -128 186 0
-128 -187 0
186 -187 0
128 -186 187 0
c gate 188 53 -70 0
53 -188 0
-70 -188 0
-53 70 188 0
c gate 189 -71 -188 0
-71 -189 0
-188 -189 0
71 188 189 0
c gate 190 50 -66 0
50 -190 0
-66 -190 0
-50 66 190 0
c gate 191 -50 66 0
-50 -191 0
66 -191 0
50 -66 191 0
c gate 192 -190 -191 0
-190 -192 0
-191 -192 0
190 191 192 0
c gate 193 189 192 0
189 -193 0
192 -193 0
-189 -192 193 0
c gate 194 -189 -192 0
-189 -194 0
-192 -194 0
189 192 194 0
c gate 195 -193 -194 0
-193 -195 0
-194 -195 0
193 194 195 0
c gate 196 57 67 0
57 -196 0
67 -196 0
-57 -67 196 0
c gate 197 62 196 0
62 -197 0
196 -197 0
-62 -196 197 0
c gate 198 -54 -55 0
-54 -198 0
-55 -198 0
54 55 198 0
c gate 199 68 -198 0
68 -199 0
-198 -199 0
-68 198 199 0
c gate 200 -64 199 0
-64 -200 0
199 -200 0
64 -199 200 0
c gate 201 -197 -200 0
-197 -201 0
-200 -201 0
197 200 201 0
c gate 202 195 201 0
195 -202 0
201 -202 0
-195 -201 202 0
c gate 203 -49 66 0
-49 -203 0
66 -203 0
49 -66 203 0
c gate 204 72 -203 0
72 -204 0
-203 -204 0
-72 203 204 0
c gate 205 202 -204 0
202 -205 0
-204 -205 0
-202 204 205 0
c gate 206 187 205 0
187 -206 0
205 -206 0
-187 -205 206 0
c gate 207 -75 206 0
-75 -207 0
206 -207 0
75 -206 207 0
c gate 208 -185 -207 0
-185 -208 0
-207 -208 0
185 207 208 0
c gate 209 -99 102 0
-99 -209 0
102 -209 0
99 -102 209 0
c gate 210 -103 -209 0
-103 -210 0
-209 -210 0
103 209 210 0
c gate 211 102 110 0
102 -211 0
110 -211 0
-102 -110 211 0
c gate 212 -102 -110 0
-102 -212 0
-110 -212 0
102 110 212 0
c gate 213 -211 -212 0
-211 -213 0
-212 -213 0
211 212 213 0
c gate 214 -210 -213 0
-210 -214 0
-213 -214 0
210 213 214 0
c gate 215 210 213 0
210 -215 0
213 -215 0
-210 -213 215 0
c gate 216 43 155 0
43 -216 0
155 -216 0
-43 -155 216 0
c gate 217 -95 -216 0
-95 -217 0
-216 -217 0
95 216 217 0
c gate 218 -215 -217 0
-215 -218 0
-217 -218 0
215 217 218 0
c gate 219 -214 218 0
-214 -219 0
218 -219 0
214 -218 219 0
c gate 220 117 219 0
117 -220 0
219 -220 0
-117 -219 220 0
c gate 221 208 220 0
208 -221 0
220 -221 0
-208 -220 221 0
c gate 222 149 153 0
149 -222 0
153 -222 0
-149 -153 222 0
c gate 223 -118 -156 0
-118 -223 0
-156 -223 0
118 156 223 0
c gate 224 -174 -223 0
-174 -224 0
-223 -224 0
174 223 224 0
c gate 225 222 224 0
222 -225 0
224 -225 0
-222 -224 225 0
c gate 226 185 -225 0
185 -226 0
-225 -226 0
-185 225 226 0
c gate 227 220 -226 0
220 -227 0
-226 -227 0
-220 226 227 0
c gate 228 40 -108 0
40 -228 0
-108 -228 0
-40 108 228 0
c gate 229 -109 -228 0
-109 -229 0
-228 -229 0
109 228 229 0
c gate 230 40 97 0
40 -230 0
97 -230 0
-40 -97 230 0
c gate 231 -98 -230 0
-98 -231 0
-230 -231 0
98 230 231 0
c gate 232 -229 231 0
-229 -232 0
231 -232 0
229 -231 232 0
c gate 233 -95 -155 0
-95 -233 0
-155 -233 0
95 155 233 0
c gate 234 -232 233 0
-232 -234 0
233 -234 0
232 -233 234 0
c gate 235 229 -231 0
229 -235 0
-231 -235 0
-229 231 235 0
c gate 236 -234 -235 0
-234 -236 0
-235 -236 0
234 235 236 0
c gate 237 -215 236 0
-215 -237 0
236 -237 0
215 -236 237 0
c gate 238 -214 -237 0
-214 -238 0
-237 -238 0
214 237 238 0
c gate 239 -115 238 0
-115 -239 0
238 -239 0
115 -238 239 0
c gate 240 -116 -239 0
-116 -240 0
-239 -240 0
116 239 240 0
c gate 241 -227 240 0
-227 -241 0
240 -241 0
227 -240 241 0
c gate 242 -221 -241 0
-221 -242 0
-241 -242 0
221 241 242 0
c gate 243 184 -242 0
184 -243 0
-242 -243 0
-184 242 243 0
c gate 244 -112 182 0
-112 -244 0
182 -244 0
112 -182 244 0
c gate 245 105 244 0
105 -245 0
244 -245 0
-105 -244 245 0
c gate 246 178 181 0
178 -246 0
181 -246 0
-178 -181 246 0
c gate 247 46 138 0
46 -247 0
138 -247 0
-46 -138 247 0
c gate 248 -246 -247 0
-246 -248 0
-247 -248 0
246 247 248 0
c gate 249 -245 248 0
-245 -249 0
248 -249 0
245 -248 249 0
c gate 250 -184 249 0
-184 -250 0
249 -250 0
184 -249 250 0
c gate 251 -243 -250 0
-243 -251 0
-250 -251 0
243 250 251 0
c gate 252 176 -251 0
176 -252 0
-251 -252 0
-176 251 252 0
c gate 253 -175 -252 0
-175 -253 0
-252 -253 0
175 252 253 0
c gate 254 -173 -253 0
-173 -254 0
-253 -254 0
173 253 254 0
c gate 255 -172 -254 0
-172 -255 0
-254 -255 0
172 254 255 0
c gate 256 -167 -255 0
-167 -256 0
-255 -256 0
167 255 256 0
c gate 257 -151 166 0
-151 -257 0
166 -257 0
151 -166 257 0
c gate 258 -161 -257 0
-161 -258 0
-257 -258 0
161 257 258 0
c gate 259 -256 258 0
-256 -259 0
258 -259 0
256 -258 259 0
c gate 260 -159 -259 0
-159 -260 0
-259 -260 0
159 259 260 0
c gate 261 40 102 0
40 -261 0
102 -261 0
-40 -102 261 0
c gate 262 159 -261 0
159 -262 0
-261 -262 0
-159 261 262 0
c gate 263 13 -29 0
13 -263 0
-29 -263 0
-13 29 263 0
c gate 264 -38 -263 0
-38 -264 0
-263 -264 0
38 263 264 0
c gate 265 152 264 0
152 -265 0
264 -265 0
-152 -264 265 0
c gate 266 102 -265 0
102 -266 0
-265 -266 0
-102 265 266 0
c gate 267 -158 264 0
-158 -267 0
264 -267 0
158 -264 267 0
c gate 268 -39 -100 0
-39 -268 0
-100 -268 0
39 100 268 0
c gate 269 -267 268 0
-267 -269 0
268 -269 0
267 -268 269 0
c gate 270 -266 269 0
-266 -270 0
269 -270 0
266 -269 270 0
c gate 271 35 -101 0
35 -271 0
-101 -271 0
-35 101 271 0
c gate 272 270 271 0
270 -272 0
271 -272 0
-270 -271 272 0
c gate 273 -262 -272 0
-262 -273 0
-272 -273 0
262 272 273 0
c gate 274 -260 273 0
-260 -274 0
273 -274 0
260 -273 274 0
c gate 275 -75 205 0
-75 -275 0
205 -275 0
75 -205 275 0
c gate 276 185 225 0
185 -276 0
225 -276 0
-185 -225 276 0
c gate 277 -275 -276 0
-275 -277 0
-276 -277 0
275 276 277 0
c gate 278 -217 -277 0
-217 -278 0
-277 -278 0
217 277 278 0
c gate 279 237 -278 0
237 -279 0
-278 -279 0
-237 278 279 0
c gate 280 -214 -279 0
-214 -280 0
-279 -280 0
214 279 280 0
c gate 281 274 -280 0
274 -281 0
-280 -281 0
-274 280 281 0
c gate 282 -208 -226 0
-208 -282 0
-226 -282 0
208 226 282 0
c gate 283 -217 282 0
-217 -283 0
282 -283 0
217 -282 283 0
c gate 284 237 -283 0
237 -284 0
-283 -284 0
-237 283 284 0
c gate 285 -214 -284 0
-214 -285 0
-284 -285 0
214 284 285 0
c gate 286 -274 285 0
-274 -286 0
285 -286 0
274 -285 286 0
c gate 287 -281 -286 0
-281 -287 0
-286 -287 0
281 286 287 0
c gate 288 117 287 0
117 -288 0
287 -288 0
-117 -287 288 0
c gate 289 -117 -287 0
-117 -289 0
-287 -289 0
117 287 289 0
c gate 290 -288 -289 0
-288 -290 0
-289 -290 0
288 289 290 0
c PO
290 0
